4676
4623
4754
4788
4692
4685
4744
4787
4741
4759
4692
4755
4742
4787
4790
4743
4764
4670
4749
4771
4681
4746
4737
4713
4735
4766
4739
4701
4736
4767
4751
4770
4762
4666
4737
4768
4768
4729
4733
4707
4719
4773
4751
4795
4705
4746
4669
4671
4729
4737
4758
4621
4759
4714
4715
4748
4750
4777
4672
4719
4708
4745
4738
4800
4794
4743
4707
4744
4773
4759
4753
4629
4730
4700
4706
4746
4777
4751
4742
4733
4718
4794
4701
4793
4711
4694
4753
4751
4752
4766
4795
4753
4768
4755
4731
4715
4714
4760
4754
4780
